100 8
852 469
300 558
811 106
700 643
935 181
918 315
459 75
722 138
826 338
386 678
459 98
405 863
507 346
819 303
91 513
428 626
203 363
275 532
712 338
360 491
693 247
788 51
161 471
531 672
683 495
894 243
648 231
692 62
622 176
245 634
875 404
342 442
410 374
335 383
256 797
168 935
388 560
422 109
289 372
342 453
394 262
251 628
899 387
688 306
802 436
799 321
211 967
901 282
375 458
822 290
906 204
391 858
728 60
675 388
972 334
691 304
685 505
570 804
479 280
305 209
739 397
199 514
247 414
504 867
384 515
823 88
337 560
713 254
815 344
349 139
585 596
623 41
175 966
647 601
709 596
410 498
623 193
473 833
249 797
370 594
265 520
654 320
499 337
930 246
386 594
403 628
284 541
346 532
644 539
865 472
143 360
836 297
554 120
860 365
393 497
226 956
805 333
175 829
373 586
823 470
